set VV := 0 1 2 3 4 5 6 7 8 9 10 11 12 13 14 15 16 17 18 ;
set VS := 0 1 2 3 4 5 6 7 8 9 10 11 12 13 14 15 16 17 18 19 20 21 22 23 24 25 26 27 28 29 30 31 32 33 34 35 36 37 38 39 40 41 ;
param cv := 
0 23
1 22
2 23
3 19
4 16
5 20
6 25
7 16
8 24
9 14
10 11
11 21
12 12
13 20
14 23
15 23
16 14
17 14
18 11
;
param cs := 
0 22
1 32
2 37
3 34
4 40
5 24
6 30
7 36
8 37
9 28
10 34
11 27
12 37
13 29
14 40
15 26
16 37
17 28
18 24
19 35
20 20
21 31
22 33
23 29
24 21
25 28
26 34
27 25
28 31
29 22
30 24
31 38
32 21
33 38
34 33
35 36
36 31
37 25
38 34
39 34
40 29
41 21
;
param bv:	 0 1 2 3 4 5 6 7 8 9 10 11 12 13 14 15 16 17 18 := 
		0 0 0 0 0 0 0 0 0 0 0 0 0 0 0 0 0 24 0 0 
		1 0 0 0 0 0 0 0 0 0 0 0 17 0 0 0 0 0 0 0 
		2 0 0 0 25 0 16 0 0 0 0 0 14 12 0 0 0 0 0 0 
		3 0 0 0 0 0 0 19 0 15 0 0 0 0 0 0 0 0 0 17 
		4 0 0 0 0 0 0 0 0 0 0 0 0 0 0 0 0 0 19 0 
		5 0 0 0 0 0 0 0 0 0 0 0 0 0 0 0 0 16 0 0 
		6 0 0 0 0 0 0 0 0 25 20 13 0 0 0 15 0 0 0 0 
		7 0 0 0 0 0 0 0 0 0 0 0 0 0 0 0 17 0 19 0 
		8 0 0 0 0 0 0 0 0 0 0 0 0 0 0 0 0 0 0 0 
		9 0 0 0 0 0 0 0 0 0 0 0 24 0 0 0 23 0 0 0 
		10 0 0 0 0 0 0 0 0 0 0 0 0 0 0 24 0 0 23 0 
		11 0 0 0 0 0 0 0 0 0 0 0 0 0 0 0 0 0 0 22 
		12 0 0 0 0 0 0 0 0 0 0 0 0 0 0 0 19 0 0 0 
		13 0 0 0 0 0 0 0 0 0 0 0 0 0 0 0 0 10 0 0 
		14 0 0 0 0 0 0 0 0 0 0 0 0 0 0 0 0 0 18 0 
		15 0 0 0 0 0 0 0 0 0 0 0 0 0 0 0 0 0 0 0 
		16 0 0 0 0 0 0 0 0 0 0 0 0 0 0 0 0 0 0 22 
		17 0 0 0 0 0 0 0 0 0 0 0 0 0 0 0 0 0 0 0 
		18 0 0 0 0 0 0 0 0 0 0 0 0 0 0 0 0 0 0 0 
;
param bs:	 0 1 2 3 4 5 6 7 8 9 10 11 12 13 14 15 16 17 18 19 20 21 22 23 24 25 26 27 28 29 30 31 32 33 34 35 36 37 38 39 40 41 := 
		0 0 0 0 0 0 0 23 0 0 0 0 0 0 0 0 0 0 39 38 0 0 0 34 0 0 0 0 0 0 0 0 0 0 0 0 0 0 0 0 0 0 39 
		1 0 0 0 0 0 0 0 0 32 0 38 0 0 0 0 0 24 0 29 0 0 0 0 0 0 0 0 0 0 21 0 0 0 0 0 0 0 0 0 0 0 0 
		2 0 0 0 0 0 0 0 0 34 0 0 0 25 0 0 0 0 0 0 0 0 0 0 0 0 24 0 0 0 0 0 0 0 28 0 0 0 0 0 0 0 0 
		3 0 0 0 0 0 0 0 0 0 0 0 0 0 0 0 0 0 0 0 34 0 0 0 0 0 0 0 0 0 0 0 0 0 0 0 0 0 0 0 0 0 0 
		4 0 0 0 0 0 25 0 0 0 0 0 33 0 30 0 0 0 0 34 39 0 0 0 0 0 0 0 0 0 31 0 39 0 0 0 29 0 0 0 0 0 0 
		5 0 0 0 0 25 0 0 0 0 0 0 0 0 30 0 22 0 0 0 0 0 0 25 0 0 0 29 0 39 35 0 0 35 0 21 0 0 0 0 0 0 0 
		6 23 0 0 0 0 0 0 27 0 39 0 0 0 0 0 22 0 0 0 0 0 0 0 0 0 0 36 0 37 0 27 31 24 0 0 0 0 0 0 0 0 0 
		7 0 0 0 0 0 0 27 0 0 0 0 0 0 0 0 0 0 0 0 0 0 26 0 0 0 0 31 0 0 0 0 0 0 0 0 0 0 0 0 0 0 0 
		8 0 32 34 0 0 0 0 0 0 40 0 0 0 0 0 31 0 0 38 0 0 0 0 0 26 0 0 0 0 0 0 0 0 0 0 0 0 0 0 0 0 0 
		9 0 0 0 0 0 0 39 0 40 0 0 0 0 0 0 20 0 0 0 0 0 0 0 0 0 0 0 0 0 0 0 0 0 0 0 0 0 0 0 0 0 0 
		10 0 38 0 0 0 0 0 0 0 0 0 0 0 0 22 24 0 20 0 38 0 0 0 27 0 0 0 0 0 0 0 22 0 0 28 0 0 0 0 0 0 0 
		11 0 0 0 0 33 0 0 0 0 0 0 0 0 0 0 0 0 0 0 0 0 0 0 0 0 0 0 0 20 29 34 0 0 0 0 21 0 24 0 0 0 0 
		12 0 0 25 0 0 0 0 0 0 0 0 0 0 0 0 22 0 24 0 0 0 0 22 33 40 0 0 0 0 0 0 0 0 0 0 0 0 0 0 0 0 25 
		13 0 0 0 0 30 30 0 0 0 0 0 0 0 0 0 0 34 0 0 0 0 0 36 0 0 0 0 0 0 0 0 0 0 0 0 0 0 0 0 0 0 0 
		14 0 0 0 0 0 0 0 0 0 0 22 0 0 0 0 0 0 0 0 25 0 37 0 0 36 0 0 0 33 0 0 0 0 0 0 0 0 0 0 0 0 0 
		15 0 0 0 0 0 22 22 0 31 20 24 0 22 0 0 0 0 0 0 0 0 0 0 0 0 0 0 0 0 0 0 30 0 0 0 0 0 0 0 0 0 0 
		16 0 24 0 0 0 0 0 0 0 0 0 0 0 34 0 0 0 0 0 0 0 0 0 0 0 0 0 0 0 0 0 0 0 0 0 0 0 27 0 0 0 0 
		17 39 0 0 0 0 0 0 0 0 0 20 0 24 0 0 0 0 0 0 0 0 0 27 0 0 0 0 0 0 0 0 0 40 0 0 0 0 0 0 0 0 0 
		18 38 29 0 0 34 0 0 0 38 0 0 0 0 0 0 0 0 0 0 0 0 0 0 0 0 0 0 0 0 0 0 0 0 0 0 0 0 0 0 0 0 0 
		19 0 0 0 34 39 0 0 0 0 0 38 0 0 0 25 0 0 0 0 0 0 0 0 0 0 0 0 0 0 0 0 0 0 0 0 0 0 0 0 0 0 0 
		20 0 0 0 0 0 0 0 0 0 0 0 0 0 0 0 0 0 0 0 0 0 0 0 31 0 37 0 0 0 0 0 0 0 0 0 0 0 32 0 0 0 0 
		21 0 0 0 0 0 0 0 26 0 0 0 0 0 0 37 0 0 0 0 0 0 0 0 0 0 0 0 0 0 0 0 0 0 0 0 0 0 0 0 25 0 0 
		22 34 0 0 0 0 25 0 0 0 0 0 0 22 36 0 0 0 27 0 0 0 0 0 0 0 0 0 0 0 33 0 0 0 0 34 0 0 0 0 0 0 0 
		23 0 0 0 0 0 0 0 0 0 0 27 0 33 0 0 0 0 0 0 0 31 0 0 0 0 0 0 0 0 0 0 24 0 0 0 0 0 0 0 0 0 0 
		24 0 0 0 0 0 0 0 0 26 0 0 0 40 0 36 0 0 0 0 0 0 0 0 0 0 0 0 0 0 0 0 0 0 0 0 0 22 0 0 0 0 0 
		25 0 0 24 0 0 0 0 0 0 0 0 0 0 0 0 0 0 0 0 0 37 0 0 0 0 0 0 0 0 0 0 0 0 0 0 0 0 0 0 36 0 0 
		26 0 0 0 0 0 29 36 31 0 0 0 0 0 0 0 0 0 0 0 0 0 0 0 0 0 0 0 0 25 0 0 0 0 0 0 0 0 0 0 0 0 0 
		27 0 0 0 0 0 0 0 0 0 0 0 0 0 0 0 0 0 0 0 0 0 0 0 0 0 0 0 0 23 0 0 0 38 0 0 0 0 0 0 0 0 0 
		28 0 0 0 0 0 39 37 0 0 0 0 20 0 0 33 0 0 0 0 0 0 0 0 0 0 0 25 23 0 0 0 0 0 0 40 0 0 0 0 24 0 0 
		29 0 21 0 0 31 35 0 0 0 0 0 29 0 0 0 0 0 0 0 0 0 0 33 0 0 0 0 0 0 0 0 0 0 0 0 0 0 0 0 0 0 0 
		30 0 0 0 0 0 0 27 0 0 0 0 34 0 0 0 0 0 0 0 0 0 0 0 0 0 0 0 0 0 0 0 0 0 0 0 0 0 34 0 0 0 0 
		31 0 0 0 0 39 0 31 0 0 0 22 0 0 0 0 30 0 0 0 0 0 0 0 24 0 0 0 0 0 0 0 0 0 33 0 0 0 0 0 0 0 0 
		32 0 0 0 0 0 35 24 0 0 0 0 0 0 0 0 0 0 40 0 0 0 0 0 0 0 0 0 38 0 0 0 0 0 0 0 0 0 0 0 0 0 0 
		33 0 0 28 0 0 0 0 0 0 0 0 0 0 0 0 0 0 0 0 0 0 0 0 0 0 0 0 0 0 0 0 33 0 0 0 21 0 0 0 0 0 0 
		34 0 0 0 0 0 21 0 0 0 0 28 0 0 0 0 0 0 0 0 0 0 0 34 0 0 0 0 0 40 0 0 0 0 0 0 0 0 0 0 0 26 0 
		35 0 0 0 0 29 0 0 0 0 0 0 21 0 0 0 0 0 0 0 0 0 0 0 0 0 0 0 0 0 0 0 0 0 21 0 0 0 28 0 0 0 0 
		36 0 0 0 0 0 0 0 0 0 0 0 0 0 0 0 0 0 0 0 0 0 0 0 0 22 0 0 0 0 0 0 0 0 0 0 0 0 0 0 0 0 0 
		37 0 0 0 0 0 0 0 0 0 0 0 24 0 0 0 0 27 0 0 0 32 0 0 0 0 0 0 0 0 0 34 0 0 0 0 28 0 0 0 39 0 0 
		38 0 0 0 0 0 0 0 0 0 0 0 0 0 0 0 0 0 0 0 0 0 0 0 0 0 0 0 0 0 0 0 0 0 0 0 0 0 0 0 0 0 23 
		39 0 0 0 0 0 0 0 0 0 0 0 0 0 0 0 0 0 0 0 0 0 25 0 0 0 36 0 0 24 0 0 0 0 0 0 0 0 39 0 0 34 0 
		40 0 0 0 0 0 0 0 0 0 0 0 0 0 0 0 0 0 0 0 0 0 0 0 0 0 0 0 0 0 0 0 0 0 0 26 0 0 0 0 34 0 0 
		41 39 0 0 0 0 0 0 0 0 0 0 0 25 0 0 0 0 0 0 0 0 0 0 0 0 0 0 0 0 0 0 0 0 0 0 0 0 0 23 0 0 0 
;
